# Solution for model CHU-01
# Objective value = 2.2555084824971718e+01
x[0,1,1] 0
x[0,1,2] 1
x[0,2,1] 1
x[0,2,2] 0
x[0,3,1] 0
x[0,3,2] 0
x[0,4,1] 0
x[0,4,2] 0
x[0,5,1] 0
x[0,5,2] 0
x[1,0,1] 0
x[1,0,2] 0
x[1,2,1] 0
x[1,2,2] 0
x[1,3,1] 0
x[1,3,2] 1
x[1,4,1] 0
x[1,4,2] 0
x[1,5,1] 0
x[1,5,2] 0
x[2,0,1] 0
x[2,0,2] 0
x[2,1,1] 0
x[2,1,2] 0
x[2,3,1] 0
x[2,3,2] 0
x[2,4,1] 1
x[2,4,2] 0
x[2,5,1] 0
x[2,5,2] 0
x[3,0,1] 0
x[3,0,2] 1
x[3,1,1] 0
x[3,1,2] 0
x[3,2,1] 0
x[3,2,2] 0
x[3,4,1] 0
x[3,4,2] 0
x[3,5,1] 0
x[3,5,2] 0
x[4,0,1] 0
x[4,0,2] 0
x[4,1,1] 0
x[4,1,2] 0
x[4,2,1] 0
x[4,2,2] 0
x[4,3,1] 0
x[4,3,2] 0
x[4,5,1] 1
x[4,5,2] 0
x[5,0,1] 1
x[5,0,2] 0
x[5,1,1] 0
x[5,1,2] 0
x[5,2,1] 0
x[5,2,2] 0
x[5,3,1] 0
x[5,3,2] 0
x[5,4,1] 0
x[5,4,2] 0
y[1,1] 0
y[1,2] 7
y[2,1] 8
y[2,2] 0
y[3,1] 0
y[3,2] 8
y[4,1] 9
y[4,2] 0
y[5,1] 7
y[5,2] 0
u[1,1] 30
u[1,2] 7
u[2,1] 8
u[2,2] 15
u[3,1] 30
u[3,2] 8
u[4,1] 9
u[4,2] 15
u[5,1] 10
u[5,2] 15
z[1,1] 0
z[1,2] 1
z[2,1] 1
z[2,2] 0
z[3,1] 0
z[3,2] 1
z[4,1] 1
z[4,2] 0
z[5,1] 1
z[5,2] 0
